Route #1: 20 29 23 24 25 26 30 21 22 28 27 42 44 43 46 53 45 52 48 47 50 51 70 49 41 55 54
Route #2: 32 36 35 33 19 2 15 17 16 13 12 71 6 10 8 7 9 4 3 5
Route #3: 1 11
Route #4: 18 14 60 61 58 59 63 64 62 65 66 67 69 37 38 40 68 39 57 56 34 31
Cost 244